8,2	0,0	6,3	9,7	0,0	0,0	0,0	0,0	0,0	9,0
10,2	12,1	0,0	6,5	9,5	0,0	0,0	14,5	0,0	0,0
0,0	0,0	7,5	0,0	7,2	14,6	0,0	0,0	11,3	0,0
19,6	0,0	19,0	0,0	0,0	0,0	12,4	0,0	0,0	0,0
0,0	8,3	0,0	13,9	19,8	0,0	0,0	9,5	0,0	0,0
0,0	11,9	13,6	0,0	7,4	13,2	0,0	0,0	5,4	0,0
0,0	13,4	0,0	12,4	0,0	0,0	13,0	0,0	0,0	17,4
19,2	0,0	10,1	0,0	0,0	0,0	0,0	0,0	0,0	9,4
0,0	5,7	0,0	5,9	13,1	0,0	0,0	10,2	0,0	0,0
0,0	0,0	7,1	0,0	0,0	15,4	12,5	0,0	0,0	9,6
									
3,8	4,8	3,4	4,2	4,3	4,0	3,4	5,0	3,3	4,3
